data_generator/9.atsp
NAME: 9
TYPE: ATSP
DIMENSION: 9
EDGE_WEIGHT_TYPE: EXPLICIT
EDGE_WEIGHT_FORMAT: FULL_MATRIX
EDGE_WEIGHT_SECTION
 999999 39 72 25 88 76 17 95 43
 13 999999 51 96 5 50 14 40 60
 86 9 999999 25 20 73 82 22 82
 15 35 74 999999 74 80 53 33 2
 76 5 22 20 999999 10 78 98 7
 84 64 14 8 79 999999 85 34 69
 76 29 72 14 45 5 999999 16 34
 60 15 28 78 51 6 4 999999 4
 20 33 65 10 68 2 19 82 999999
EOF
