data_generator/9.opt.tour
NAME : 9.opt.tour
TYPE : TOUR
DIMENSION : 9
COMMENT : OPTIMAL_COST = 99
TOUR_SECTION
1
7
8
6
3
2
5
9
4
-1
EOF
